Route #1: 0 120 106 99 96 94 97 114 18 118 83 117 84 85 91 89 87 86 82 88 0
Route #2: 0 111 92 93 95 102 101 105 107 104 103 100 116 110 115 109 90 113 81 119 0
Route #3: 0 112 2 1 3 4 5 6 7 9 10 15 14 13 12 8 108 0
Route #4: 0 11 17 16 19 25 22 24 27 30 33 34 36 29 32 35 31 28 26 23 20 21 0
Route #5: 0 37 38 39 42 41 44 46 49 47 50 51 48 45 43 40 0
Route #6: 0 52 54 57 59 65 61 62 64 66 63 60 56 58 55 53 79 0
Route #7: 0 67 69 70 71 74 72 75 78 80 77 76 73 68 98 0
Cost 1101:
